
Gurobi 9.0.1 (linux64) logging started Fri May  1 00:38:58 2020

Gurobi Optimizer version 9.0.1 build v9.0.1rc0 (linux64)
Optimize a model with 1264 rows, 842 columns and 4500 nonzeros
Model fingerprint: 0x1d3a2281
Variable types: 0 continuous, 842 integer (810 binary)
Coefficient statistics:
  Matrix range     [1e+00, 8e+00]
  Objective range  [3e+00, 1e+02]
  Bounds range     [1e+00, 1e+00]
  RHS range        [1e+00, 9e+00]

User MIP start produced solution with objective 571 (0.00s)
Loaded user MIP start with objective 571

Presolve removed 650 rows and 396 columns
Presolve time: 0.01s
Presolved: 614 rows, 446 columns, 2592 nonzeros
Variable types: 0 continuous, 446 integer (418 binary)

Root relaxation: objective 4.127500e+02, 452 iterations, 0.02 seconds

    Nodes    |    Current Node    |     Objective Bounds      |     Work
 Expl Unexpl |  Obj  Depth IntInf | Incumbent    BestBd   Gap | It/Node Time

     0     0  412.75000    0   25  571.00000  412.75000  27.7%     -    0s
     0     0  536.00000    0   62  571.00000  536.00000  6.13%     -    0s
     0     0  536.00000    0   62  571.00000  536.00000  6.13%     -    0s
     0     0  536.75000    0   81  571.00000  536.75000  6.00%     -    0s
     0     0  536.75000    0   82  571.00000  536.75000  6.00%     -    0s
     0     0  541.75000    0   71  571.00000  541.75000  5.12%     -    0s
     0     0  541.75000    0   71  571.00000  541.75000  5.12%     -    0s
     0     0  541.75000    0   70  571.00000  541.75000  5.12%     -    0s
     0     0  541.75000    0   76  571.00000  541.75000  5.12%     -    0s
     0     0  541.75000    0   55  571.00000  541.75000  5.12%     -    0s
     0     0  541.75000    0   56  571.00000  541.75000  5.12%     -    0s
     0     0  541.75000    0   56  571.00000  541.75000  5.12%     -    0s
     0     0  541.75000    0   57  571.00000  541.75000  5.12%     -    0s
     0     0  541.75000    0   57  571.00000  541.75000  5.12%     -    0s
     0     0  541.75000    0   57  571.00000  541.75000  5.12%     -    0s
     0     2  541.75000    0   37  571.00000  541.75000  5.12%     -    0s
   952   352     cutoff   14       571.00000  549.35417  3.79%  68.8    5s
  1344   457  557.04825   27   87  571.00000  549.52995  3.76%  70.9   10s
  2030   494  554.01081   25  211  571.00000  550.23975  3.64%  69.8   15s
  2742   607  553.44249   22  180  571.00000  552.47619  3.24%  71.7   20s
  3343   716  562.08055   34  133  571.00000  553.66667  3.04%  73.4   25s
  4042   783  559.21891   26  180  571.00000  555.02551  2.80%  75.7   30s
  4610   835  558.82593   24  210  571.00000  556.30394  2.57%  77.4   35s
  5417   827     cutoff   32       571.00000  558.01422  2.27%  78.0   40s
  6215   729  569.81470   37  155  571.00000  559.30632  2.05%  78.9   45s
  6868   663  562.22373   30  150  571.00000  560.62315  1.82%  79.1   50s
  7690   478     cutoff   34       571.00000  562.36597  1.51%  78.5   55s
  8585    57     cutoff   26       571.00000  567.58333  0.60%  77.0   60s

Cutting planes:
  Learned: 6
  Gomory: 21
  Cover: 59
  Implied bound: 107
  Projected implied bound: 2
  MIR: 32
  StrongCG: 2
  Flow cover: 70
  GUB cover: 3
  Inf proof: 6
  Zero half: 44
  RLT: 2
  Relax-and-lift: 3

Explored 8643 nodes (664440 simplex iterations) in 60.09 seconds
Thread count was 1 (of 40 available processors)

Solution count 1: 571 

Optimal solution found (tolerance 1.00e-04)
Best objective 5.710000000000e+02, best bound 5.710000000000e+02, gap 0.0000%

User-callback calls 33092, time in user-callback 0.02 sec
